Route 1: 0 10 54 29 48 34 92 8 35 37 77 0
Route 2: 0 23 73 64 70 62 97 0
Route 3: 0 30 49 72 31 87 4 0
Route 4: 0 85 65 76 14 20 66 45 32 15 0
Route 5: 0 44 84 1 91 53 74 61 90 75 88 0
Route 6: 0 39 51 2 9 55 3 0
Route 7: 0 7 98 21 63 58 99 94 80 0
Route 8: 0 71 12 95 57 100 89 79 82 33 18 0
Route 9: 0 96 56 19 86 17 60 93 46 25 52 0
Route 10: 0 47 16 6 28 22 26 36 11 0
Route 11: 0 69 67 42 83 81 38 41 24 50 43 68 40 0
Route 12: 0 78 5 27 59 13 0
